NAME : morphed22-2-26
COMMENT : Generated using the function morphInstances from the R-package netgen (Bossek,2015) - Number of clusters: 2 Alpha: 0.5
TYPE : TSP
DIMENSION : 22
EDGE_WEIGHT_TYPE : EUC_2D
NODE_COORD_SECTION
1 14.1169532717 49.1661929533
2 36.705580141 40.5242088802
3 84.1710336316 18.6972776726
4 81.0869597723 51.4862097627
5 38.5081200036 73.7964785175
6 47.4601822627 68.2516934634
7 80.4231506413 35.1063410468
8 75.3244582886 27.8283593594
9 40.1984370022 64.856560419
10 71.1056880371 31.3132180981
11 55.7728608715 49.9928534652
12 49.231986378 5.8921623165
13 66.9102705131 7.9096614754
14 20.496267668 74.2988642407
15 80.949268916 4.0265981772
16 49.1461572002 20.3046725922
17 50.3547113298 71.5897801534
18 42.0126136162 74.8855199392
19 66.5464137451 23.8200945405
20 64.3161657286 70.7922714697
21 91.5078401591 35.4829141602
22 61.8125117793 74.0172078558
EOF
